p edge 40 253
e 1 3
e 1 11
e 1 16
e 1 18
e 1 19
e 1 28
e 1 30
e 1 33
e 1 34
e 1 37
e 1 40
e 2 4
e 2 6
e 2 8
e 2 11
e 2 13
e 2 17
e 2 21
e 2 22
e 2 29
e 2 31
e 2 33
e 2 34
e 2 40
e 3 4
e 3 6
e 3 12
e 3 13
e 3 16
e 3 17
e 3 18
e 3 22
e 3 26
e 3 33
e 3 36
e 3 40
e 4 7
e 4 12
e 4 14
e 4 19
e 4 20
e 4 21
e 4 24
e 4 25
e 4 31
e 4 32
e 4 37
e 4 38
e 5 6
e 5 7
e 5 9
e 5 13
e 5 16
e 5 19
e 5 22
e 5 25
e 5 27
e 6 7
e 6 8
e 6 10
e 6 22
e 6 24
e 6 25
e 6 35
e 6 39
e 7 8
e 7 10
e 7 12
e 7 17
e 7 23
e 7 24
e 7 25
e 7 28
e 7 32
e 7 33
e 7 36
e 7 37
e 7 39
e 7 40
e 8 15
e 8 18
e 8 25
e 8 28
e 8 30
e 8 34
e 8 35
e 8 39
e 8 40
e 9 10
e 9 11
e 9 14
e 9 15
e 9 19
e 9 27
e 9 29
e 9 30
e 9 31
e 9 37
e 9 39
e 10 13
e 10 16
e 10 17
e 10 19
e 10 26
e 10 27
e 10 36
e 11 12
e 11 13
e 11 14
e 11 36
e 11 38
e 12 16
e 12 17
e 12 20
e 12 21
e 12 23
e 12 26
e 12 31
e 12 32
e 12 33
e 13 15
e 13 17
e 13 19
e 13 22
e 13 23
e 13 26
e 13 27
e 13 28
e 13 30
e 13 31
e 13 32
e 13 34
e 13 39
e 13 40
e 14 15
e 14 19
e 14 31
e 14 32
e 14 33
e 14 37
e 15 16
e 15 20
e 15 25
e 15 27
e 15 34
e 15 38
e 15 39
e 16 21
e 16 25
e 16 27
e 16 29
e 16 33
e 16 35
e 16 37
e 16 38
e 16 39
e 17 19
e 17 22
e 17 26
e 17 28
e 17 30
e 17 31
e 17 33
e 17 34
e 18 19
e 18 20
e 18 23
e 18 25
e 18 28
e 18 29
e 18 33
e 19 21
e 19 28
e 19 34
e 19 36
e 19 38
e 19 39
e 20 21
e 20 26
e 20 27
e 20 29
e 20 31
e 20 32
e 20 33
e 20 36
e 21 24
e 21 27
e 21 28
e 21 29
e 21 31
e 21 32
e 21 33
e 21 34
e 21 36
e 21 37
e 22 26
e 22 27
e 22 30
e 22 37
e 23 24
e 23 25
e 23 27
e 23 29
e 23 33
e 23 34
e 23 35
e 23 36
e 23 38
e 24 25
e 24 28
e 24 29
e 24 30
e 24 31
e 24 32
e 24 33
e 24 37
e 24 40
e 25 26
e 25 31
e 25 33
e 25 34
e 25 37
e 25 39
e 26 29
e 26 31
e 26 32
e 26 38
e 26 40
e 27 30
e 27 31
e 27 33
e 27 35
e 27 39
e 28 31
e 28 35
e 28 36
e 28 39
e 29 38
e 30 35
e 30 37
e 30 39
e 31 33
e 31 35
e 31 36
e 31 38
e 31 39
e 31 40
e 32 35
e 32 36
e 32 39
e 33 34
e 34 38
e 36 37